letting maxWeight=59
letting values=[34, 47, 32, 41, 46, 10, 21, 19, 29, 14, 65, 24, 44, 16, 57, 56, 17, 45, 3, 15, 55, 44, 65, 16, 31, 63, 11, 54, 1, 8, 24, 39, 36, 44, 57, 2, 56, 11, 15, 9, 44, 2, 39, 58, 15, 16, 14, 66, 3, 14, 22, 35, 33, 7, 36, 36, 43, 29, 57, 59, 57, 63, 35, 18, 33, 36]
letting weights=[27, 26, 28, 3, 3, 2, 24, 24, 28, 9, 3, 30, 29, 2, 22, 13, 27, 6, 23, 4, 22, 23, 18, 6, 20, 23, 29, 15, 20, 28, 13, 30, 20, 20, 8, 19, 24, 8, 19, 11, 19, 28, 10, 19, 2, 22, 1, 27, 5, 15, 30, 13, 14, 2, 28, 2, 10, 15, 10, 9, 8, 8, 27, 22, 17, 6]
